54 665
2 4 7 8 10 12 13 14 18 22 24 25 26 27 28 35 36 38 39 40 42 43 44 45 47 48 52
5 7 9 11 12 16 17 19 21 23 24 26 27 30 31 32 35 36 37 38 39 45 46 53
0 3 6 14 16 18 19 21 26 29 31 32 34 35 37 38 43 49
2 5 6 7 9 10 12 13 18 19 21 22 23 25 26 32 33 34 35 36 37 39 41 42 45 46 47 48 49 50 52 53
0 5 6 7 11 13 14 15 16 23 25 28 29 32 33 35 38 39 41 42 43 47 48 49 50
1 3 4 7 8 10 12 13 15 18 19 21 22 24 25 27 30 31 33 36 39 42 46
2 3 4 11 12 16 18 20 24 26 27 28 29 31 33 35 36 38 39 40 41 44 47 48 49 50 51 53
0 1 3 4 5 9 11 15 16 17 18 20 22 24 33 35 38 39 41 42 44 50 53
0 5 9 13 14 15 21 22 26 27 30 34 35 36 37 38 39 40 41 48 53
1 3 7 8 13 18 19 23 24 25 27 28 29 32 33 35 37 39 40 41 42 43 44 45 48 50
0 3 5 14 16 17 18 21 22 25 28 30 31 32 34 39 41 43 47 48 49 51 53
1 4 6 7 12 14 16 17 18 20 22 24 29 36 39 40 42 44 47 48 50
0 1 3 5 6 11 13 14 15 16 21 22 23 25 26 28 29 30 36 38 41 43 47 48 49 50 51 52
0 3 4 5 8 9 12 14 16 17 18 20 22 23 25 26 28 30 31 32 34 38 40 41 44 48 49 52
0 2 4 8 10 11 12 13 17 18 19 24 29 32 33 34 37 39 42 44 45 50 51 52
4 5 7 8 12 18 19 21 22 25 26 28 29 35 37 40 41 42 50 51 52
1 2 4 6 7 10 11 12 13 20 22 27 28 29 30 31 32 33 37 38 39 40 41 48 49 51
1 7 10 11 13 14 24 25 26 27 28 31 33 35 42 51 52
0 2 3 5 6 7 9 10 11 13 14 15 20 21 23 24 25 26 28 29 30 31 33 35 36 37 38 39 40 42 44 45 46 49 52
1 2 3 5 9 14 15 21 22 24 25 26 28 29 31 32 40 43 44 45 47 48 49 50 51 52 53
6 7 11 13 16 18 21 22 25 26 30 31 33 35 36 37 38 41 43 45 49
1 2 3 5 8 10 12 15 18 19 20 23 24 26 29 31 35 37 41 45 53
0 3 5 7 8 10 11 12 13 15 16 19 20 24 26 27 28 30 31 32 35 36 40 44 49 51 52
1 3 4 9 12 13 18 21 24 28 31 32 33 39 44 47 48 49 50
0 1 5 6 7 9 11 14 17 18 19 21 22 23 26 27 28 29 33 34 38 39 42 43 45 49 51 52
0 3 4 5 9 10 12 13 15 17 18 19 20 26 28 30 34 35 36 37 39 42 43 46 49 50
0 1 2 3 6 8 12 13 15 17 18 19 20 21 22 24 25 27 29 30 31 35 36 37 40 41 42 45 46 47 50 52
0 1 5 6 8 9 16 17 22 24 26 28 30 32 33 34 36 39 45 47 48 49 52
0 4 6 9 10 12 13 15 16 17 18 19 22 23 24 25 27 29 32 35 37 38 40 42 43 44 45 46 48 51 53
2 4 6 9 11 12 14 15 16 18 19 21 24 26 28 30 31 32 33 34 36 38 39 40 46 47 48 51 52
1 5 8 10 12 13 16 18 20 22 25 26 27 29 33 34 38 39 41 45 48 49 50 51 52 53
1 2 5 6 10 13 16 17 18 19 20 21 22 23 26 29 35 36 37 38 39 41 50 53
1 2 3 4 9 10 13 14 16 19 22 23 27 28 29 33 40 42 44 45 46 49 50 51 52
3 4 5 6 7 9 14 16 17 18 20 23 24 27 29 30 32 34 37 40 42 44 45 46 47 48 50 53
2 3 8 10 13 14 24 25 27 29 30 33 37 39 44 47 49 50
0 1 2 3 4 6 7 8 9 15 17 18 20 21 22 25 26 28 31 36 42 43 44 45 48 50 52
0 1 3 5 6 8 11 12 18 20 22 25 26 27 29 31 35 37 38 40 41 44 47 50 52
1 2 3 8 9 14 15 16 18 20 21 25 26 28 31 33 34 36 38 39 40 41 42 43 46 48 49 51
0 1 2 4 6 7 8 12 13 16 18 20 24 28 29 30 31 36 37 40 42 43 44 45 46 48 52 53
0 1 3 4 5 6 7 8 9 10 11 14 16 18 23 24 25 27 29 30 31 34 37 40 41 45 47 48 51 53
0 6 8 9 11 13 15 16 18 19 22 26 28 29 32 33 36 37 38 39 46 47 48
3 4 6 7 8 9 10 12 13 15 16 20 21 26 30 31 36 37 39 42 43 45 47 49 50 51
0 3 4 5 7 9 11 14 15 17 18 24 25 26 28 32 33 35 37 38 41 43 45 46 50
0 2 4 9 10 12 19 20 24 25 28 35 37 38 41 42 45 46 47 49 51
0 6 7 9 11 13 14 18 19 22 23 28 32 33 34 35 36 38 46 50
0 1 3 9 14 18 19 20 21 24 26 27 28 30 32 33 35 38 39 41 42 43 48 50 52
1 3 5 18 25 26 28 29 32 33 37 38 40 42 43 44 47
0 3 4 6 10 11 12 19 23 26 27 29 33 34 36 39 40 41 43 46 48 53
0 3 4 6 8 9 10 11 12 13 16 19 23 27 28 29 30 33 35 37 38 39 40 45 47 49 50 51
2 3 4 6 10 12 13 16 18 19 20 22 23 24 25 27 30 32 34 37 41 43 48 50 52
3 4 6 7 9 11 12 14 15 19 23 25 26 30 31 32 33 34 35 36 41 42 44 45 48 49 52 53
6 10 12 14 15 16 17 19 22 24 28 29 30 32 37 39 41 43 48
0 3 12 13 14 15 17 18 19 22 24 26 27 29 30 32 35 36 38 45 49 50
1 3 6 7 8 10 19 21 28 30 31 33 38 39 47 50
